# Solution for model GasLib-40
# Objective value = 5.6367114438934848e+01
loadshed[innode_1] 0
loadshed[innode_2] 0
loadshed[innode_3] 0
loadshed[innode_4] 0
loadshed[innode_5] 0
loadshed[innode_6] 0
loadshed[innode_7] 0
loadshed[innode_8] 0
loadshed[source_1] -3.5958480151959238e-02
loadshed[source_2] 1.1824434528376315e-01
loadshed[source_3] 2.7426429868127833e-01
loadshed[sink_1] 5.5341701988567671e-01
loadshed[sink_2] 0
loadshed[sink_3] 0
loadshed[sink_4] 0
loadshed[sink_5] 0
loadshed[sink_6] 0
loadshed[sink_7] 0
loadshed[sink_8] 0
loadshed[sink_9] 0
loadshed[sink_10] 0
loadshed[sink_11] 0
loadshed[sink_12] 1
loadshed[sink_13] 0
loadshed[sink_14] 0
loadshed[sink_15] 0
loadshed[sink_16] 0
loadshed[sink_17] 0
loadshed[sink_18] 0
loadshed[sink_19] 0
loadshed[sink_20] 0
loadshed[sink_21] 1
loadshed[sink_22] 0
loadshed[sink_23] 0
loadshed[sink_24] 8.9323456364154952e-01
loadshed[sink_25] 0
loadshed[sink_26] 0
loadshed[sink_27] 0
loadshed[sink_28] 0
loadshed[sink_29] 0
flow[source_1,sink_3] 1.6377496389346771e+02
flow[innode_1,sink_16] 1.6354166666666970e+01
flow[innode_6,sink_13] -2.5259194805968832e-01
flow[sink_13,sink_14] -1.6606758614726356e+01
flow[sink_14,sink_10] -3.2960925281393024e+01
flow[sink_25,sink_26] 1.7259121889440394e+02
flow[sink_26,sink_9] 1.6354166666669244e+01
flow[sink_9,sink_18] 0
flow[sink_26,sink_4] 1.3988288556106806e+02
flow[sink_4,sink_20] 0
flow[sink_18,sink_6] -1.6354166666667879e+01
flow[sink_25,innode_8] -1.3106663056013136e+02
flow[sink_6,sink_7] -5.6365992487287514e+01
flow[sink_6,sink_22] 23.657659153953
flow[sink_7,sink_24] 1.7460597404454936e+00
flow[sink_22,sink_1] 7.30349248728633
flow[sink_24,sink_21] 0
flow[sink_21,sink_12] 0
flow[sink_7,sink_5] -7.4466218894399688e+01
flow[sink_5,sink_17] -9.0820385561066360e+01
flow[sink_17,sink_4] -1.2352871889440138e+02
flow[sink_17,sink_8] 1.6354166666668334e+01
flow[sink_3,sink_23] 16.3541666666697
flow[sink_8,sink_20] 0
flow[sink_25,sink_20] 1.6354166666668618e+01
flow[sink_25,sink_15] -73.9803297195483
flow[sink_15,sink_29] -5.1776148569887610e+01
flow[sink_29,sink_28] 1.6354166666667879e+01
flow[sink_29,sink_2] 5.4912514482994041e+01
flow[sink_2,sink_15] 3.8558347816327370e+01
flow[sink_29,innode_7] -1.3939699638621619e+02
flow[innode_4,sink_19] 4.4289574597251985e+01
flow[sink_19,innode_3] 4.0027085316629950e+01
flow[innode_4,innode_5] 7.0442184017475086e+01
flow[sink_27,innode_5] -7.0442184017475086e+01
flow[sink_27,sink_19] 5.4088017350808414e+01
flow[sink_10,sink_11] 3.2708333333333641e+01
flow[sink_10,innode_2] -4.1996339964763479e+01
flow[sink_10,innode_3] -4.0027085316629950e+01
flow[innode_6,sink_25] 2.5259194805968832e-01
flow[sink_11,innode_1] 1.6354166666666970e+01
flow[sink_19,innode_2] 4.1996339964763479e+01
flow[source_3,innode_4] 1.1473175861472707e+02
flow[source_2,innode_7] 1.3939699638621619e+02
flow[sink_3,innode_8] 1.3106663056013136e+02
pressure[innode_1] 7.6847585157279966e+01
pressure[innode_2] 7.9218966482586055e+01
pressure[innode_3] 7.9130331034728087e+01
pressure[innode_4] 81.01325
pressure[innode_5] 8.0964796151404911e+01
pressure[innode_6] 7.5409169274703274e+01
pressure[innode_7] 81.01325
pressure[innode_8] 8.0465812860008043e+01
pressure[source_1] 81.01325
pressure[source_2] 81.01325
pressure[source_3] 81.01325
pressure[sink_1] 1.0132500000000002e+00
pressure[sink_2] 7.5893930469389019e+01
pressure[sink_3] 8.0465812860008043e+01
pressure[sink_4] 4.5468598981868610e+01
pressure[sink_5] 3.3982276413386856e+01
pressure[sink_6] 2.2385875812385825e+00
pressure[sink_7] 3.0123583018979359e+00
pressure[sink_8] 40.1306534736706
pressure[sink_9] 62.27483200123
pressure[sink_10] 7.6999286464883511e+01
pressure[sink_11] 7.6847585157279966e+01
pressure[sink_12] 1.01325
pressure[sink_13] 7.5410561771900888e+01
pressure[sink_14] 7.5440280981024983e+01
pressure[sink_15] 7.5768045961891687e+01
pressure[sink_16] 7.5825935322462286e+01
pressure[sink_17] 4.0747738669084221e+01
pressure[sink_18] 1.8018826384853428e+00
pressure[sink_19] 7.9218966482586055e+01
pressure[sink_20] 7.1510385946537042e+01
pressure[sink_21] 1.01325
pressure[sink_22] 1.4883111937465496e+00
pressure[sink_23] 8.0301094848348271e+01
pressure[sink_24] 1.01325
pressure[sink_25] 7.5409169274703274e+01
pressure[sink_26] 6.3253671085172421e+01
pressure[sink_27] 8.0380256187220269e+01
pressure[sink_28] 7.6989644160157482e+01
pressure[sink_29] 7.7284926433774672e+01
interdiction[source_1,sink_3] 0
interdiction[innode_1,sink_16] 0
interdiction[innode_6,sink_13] 0
interdiction[sink_13,sink_14] 0
interdiction[sink_14,sink_10] 0
interdiction[sink_25,sink_26] 0
interdiction[sink_26,sink_9] 0
interdiction[sink_9,sink_18] 1
interdiction[sink_26,sink_4] 0
interdiction[sink_4,sink_20] 1
interdiction[sink_18,sink_6] 0
interdiction[sink_25,innode_8] 0
interdiction[sink_6,sink_7] 0
interdiction[sink_6,sink_22] 0
interdiction[sink_7,sink_24] 0
interdiction[sink_22,sink_1] 0
interdiction[sink_24,sink_21] 0
interdiction[sink_21,sink_12] 0
interdiction[sink_7,sink_5] 0
interdiction[sink_5,sink_17] 0
interdiction[sink_17,sink_4] 0
interdiction[sink_17,sink_8] 0
interdiction[sink_3,sink_23] 0
interdiction[sink_8,sink_20] 1
interdiction[sink_25,sink_20] 0
interdiction[sink_25,sink_15] 0
interdiction[sink_15,sink_29] 0
interdiction[sink_29,sink_28] 0
interdiction[sink_29,sink_2] 0
interdiction[sink_2,sink_15] 0
interdiction[sink_29,innode_7] 0
interdiction[innode_4,sink_19] 0
interdiction[sink_19,innode_3] 0
interdiction[innode_4,innode_5] 0
interdiction[sink_27,innode_5] 0
interdiction[sink_27,sink_19] 0
interdiction[sink_10,sink_11] 0
interdiction[sink_10,innode_2] 0
interdiction[sink_10,innode_3] 0
interdiction[innode_6,sink_25] 0
interdiction[sink_11,innode_1] 0
interdiction[sink_19,innode_2] 0
interdiction[source_3,innode_4] 0
interdiction[source_2,innode_7] 0
interdiction[sink_3,innode_8] 0
WCcheckFlow[source_1,sink_3] 39
WCcheckFlow[innode_1,sink_16] 1
WCcheckFlow[innode_6,sink_13] 13
WCcheckFlow[sink_13,sink_14] 12
WCcheckFlow[sink_14,sink_10] 11
WCcheckFlow[sink_25,sink_26] 14
WCcheckFlow[sink_26,sink_9] 1
WCcheckFlow[sink_9,sink_18] 0
WCcheckFlow[sink_26,sink_4] 12
WCcheckFlow[sink_4,sink_20] 0
WCcheckFlow[sink_18,sink_6] -1
WCcheckFlow[sink_25,innode_8] -36
WCcheckFlow[sink_6,sink_7] -4
WCcheckFlow[sink_6,sink_22] 2
WCcheckFlow[sink_7,sink_24] 3
WCcheckFlow[sink_22,sink_1] 1
WCcheckFlow[sink_24,sink_21] 2
WCcheckFlow[sink_21,sink_12] 1
WCcheckFlow[sink_7,sink_5] -8
WCcheckFlow[sink_5,sink_17] -9
WCcheckFlow[sink_17,sink_4] -11
WCcheckFlow[sink_17,sink_8] 1
WCcheckFlow[sink_3,sink_23] 1
WCcheckFlow[sink_8,sink_20] 0
WCcheckFlow[sink_25,sink_20] 1
WCcheckFlow[sink_25,sink_15] 6
WCcheckFlow[sink_15,sink_29] 5
WCcheckFlow[sink_29,sink_28] 1
WCcheckFlow[sink_29,sink_2] 1
WCcheckFlow[sink_2,sink_15] 0
WCcheckFlow[sink_29,innode_7] 2
WCcheckFlow[innode_4,sink_19] -4
WCcheckFlow[sink_19,innode_3] -5
WCcheckFlow[innode_4,innode_5] 2
WCcheckFlow[sink_27,innode_5] -1
WCcheckFlow[sink_27,sink_19] 0
WCcheckFlow[sink_10,sink_11] 3
WCcheckFlow[sink_10,innode_2] 1
WCcheckFlow[sink_10,innode_3] 6
WCcheckFlow[innode_6,sink_25] -14
WCcheckFlow[sink_11,innode_1] 2
WCcheckFlow[sink_19,innode_2] 0
WCcheckFlow[source_3,innode_4] -1
WCcheckFlow[source_2,innode_7] -1
WCcheckFlow[sink_3,innode_8] 37
